row=10;
column=10;
Board=[|1,0,0,0,1,0,0,0,0,1|0,1,0,1,0,1,0,0,0,0|0,0,0,1,0,0,1,0,0,0|0,1,0,0,0,0,0,0,0,1|0,0,0,0,0,0,0,0,0,0|0,0,0,0,1,0,1,0,0,0|0,0,0,0,0,0,0,0,0,0|0,0,1,0,0,1,0,0,0,0|1,0,0,0,0,0,0,0,0,1|0,0,0,0,0,0,0,0,0,0|];
right = [0,3,0,2,2,0,3,2,2,2];
bottom = [3,1,2,1,2,1,2,0,0,4];
